units metal 

atom_style atomic

atom_modify map array

read_data Migration_Data/init.data

mass 1 183.84

mass 2 1.00784

mass 3 4.002602

pair_style eam/alloy

pair_coeff * * Potentials/Tungsten_Hydrogen_Helium/WHHe_test.eam.alloy W H He

fix 1 all neb 10.0

timestep 0.01

min_style fire

thermo 50 

neb 10e-8 10e-10 5000 5000 25 final Migration_Data/final.dump 